c 67_4_checker_5cl.cnf
c
c field = 67
c formula set type = 4_checker_5cl
c
p cnf 5 6
12 
42 
72 
102 
-162 
13 
43 
73 
103 
-163 
4 
36 
68 
100 
-164 
5 
37 
69 
101 
-165 
20 
48 
76 
104 
-160 
21 
49 
77 
105 
-161 
